Set parameter TokenServer to value "hpc-licenses.hpcc.usc.edu"
Set parameter TimeLimit to value 3600
Gurobi Optimizer version 9.5.1 build v9.5.1rc2 (linux64)
Thread count: 20 physical cores, 20 logical processors, using up to 20 threads
Optimize a model with 6007 rows, 4529 columns and 24534 nonzeros
Model fingerprint: 0x6f840593
Variable types: 4506 continuous, 23 integer (23 binary)
Coefficient statistics:
  Matrix range     [1e+00, 1e+00]
  Objective range  [6e-03, 1e+00]
  Bounds range     [1e+00, 1e+00]
  RHS range        [1e+00, 1e+02]
Presolve removed 1520 rows and 1515 columns
Presolve time: 0.09s
Presolved: 4487 rows, 3014 columns, 21975 nonzeros
Variable types: 2994 continuous, 20 integer (20 binary)
Found heuristic solution: objective 279.4987344

Root relaxation: objective 2.890239e+02, 3611 iterations, 0.19 seconds (0.22 work units)

    Nodes    |    Current Node    |     Objective Bounds      |     Work
 Expl Unexpl |  Obj  Depth IntInf | Incumbent    BestBd   Gap | It/Node Time

     0     0  289.02392    0    2  279.49873  289.02392  3.41%     -    0s
     0     0  288.97974    0    2  279.49873  288.97974  3.39%     -    0s
H    0     0                     280.2091303  288.97974  3.13%     -    0s
     0     0  288.91867    0    2  280.20913  288.91867  3.11%     -    0s
     0     0  288.84982    0    2  280.20913  288.84982  3.08%     -    0s
     0     0  288.45061    0    2  280.20913  288.45061  2.94%     -    0s
H    0     0                     286.9193682  288.45061  0.53%     -    0s
     0     0  288.40507    0    3  286.91937  288.40507  0.52%     -    0s
     0     0  288.40507    0    2  286.91937  288.40507  0.52%     -    0s
     0     0  288.40507    0    3  286.91937  288.40507  0.52%     -    1s
H    0     0                     288.0636285  288.40507  0.12%     -    1s
     0     0  288.40464    0    4  288.06363  288.40464  0.12%     -    1s
     0     0  288.40464    0    4  288.06363  288.40464  0.12%     -    1s
     0     0  288.38129    0    2  288.06363  288.38129  0.11%     -    2s

Cutting planes:
  Gomory: 4
  MIR: 724
  Flow cover: 1
  RLT: 12
  Relax-and-lift: 1

Explored 1 nodes (5828 simplex iterations) in 2.11 seconds (0.90 work units)
Thread count was 20 (of 20 available processors)

Solution count 4: 288.064 286.919 280.209 279.499 

Optimal solution found (tolerance 1.00e-04)
Best objective 2.880636284780e+02, best bound 2.880636284780e+02, gap 0.0000%



#########node  1
V1.7
#########node  2
0.058441558441558406,0.9415584415584416
#########node  3
1.0,0.0


Total Solving Time 2.459573745727539
obj value 288.06362847802154
Policy Regret train (Sum) 2.0340319405192426
Best Treatment Found train (%) 82.8
treatment classification acc train (%) 47.8
Policy Regret test (Sum) 23.056351074388168
Best Treatment Found test (%) 86.09
treatment classification acc test (%) 50.43
